50
    1   430   415
    2   483   464
    3   387   374
    4   403   395
    5   292   248
    6   455   437
    7   404   429
    8    53    43
    9   339   361
   10   375   378
   11   327   355
   12   362   383
   13   255   216
   14   188   184
   15    27    28
   16   114   128
   17   177   225
   18   404   440
   19   371   389
   20    37    30
   21    35    53
   22   184   223
   23   382   376
   24   282   254
   25   414   440
   26    68   116
   27   198   158
   28   231   255
   29   221   253
   30   428   395
   31   499   493
   32   147   163
   33   214   167
   34   316   313
   35    25    48
   36   421   413
   37   191   224
   38   113   148
   39   192   200
   40   399   434
   41   223   223
   42   149   157
   43    37     6
   44   143   145
   45   412   435
   46   306   294
   47   391   413
   48   177   129
   49   467   495
   50   143   152
11247
